649.0
667.0
664.0
658.0
637.0
664.0
653.0
652.0
641.0
662.0
656.0
650.0
632.0
653.0
656.0
644.0
650.0
664.0
657.0
668.0
643.0
658.0
665.0
647.0
664.0
642.0
667.0
665.0
647.0
650.0
649.0
664.0
656.0
666.0
661.0
644.0
650.0
641.0
640.0
637.0
641.0
647.0
670.0
666.0
648.0
635.0
640.0
663.0
645.0
648.0
658.0
669.0
660.0
657.0
657.0
659.0
659.0
647.0
643.0
652.0
652.0
653.0
642.0
665.0
643.0
667.0
640.0
634.0
664.0
662.0
652.0
635.0
642.0
662.0
643.0
644.0
631.0
664.0
677.0
667.0
646.0
656.0
650.0
647.0
659.0
667.0
645.0
652.0
631.0
662.0
652.0
647.0
651.0
652.0
633.0
656.0
667.0
652.0
655.0
654.0
